nServices=10;
nDrivers=10;
nBuses=10;
startTime=[42 42 182 3 57 155 128 160 163 46];
durationTime=[25 13 17 19 19 23 16 29 13 18];
durationDist=[28 28 46 36 51 33 57 25 52 60];
passangers=[9 23 17 13 21 25 9 3 8 8];
capacity=[22 14 15 25 19 21 27 27 27 27];
costTime=[10 7 8 7 9 7 8 10 9 6];
costDist=[6 2 4 6 2 6 4 2 3 2];
maxTime=[54 40 27 49 32 46 28 58 30 49];
costBM=[8 8 6 5 6 6 5 7 8 6];
costEM=[9 12 10 11 9 12 10 12 11 12];
BM=[18 20 14 13 15 11 14 15 10 17];
